75 30 6 59 48 41 97 22 8 38 45 98 53 55 64 36 15 82 46 65 68 61 89 29 7 77 90 52 96 25 17 73 95 81 56 42 34 58 12 60 78 16 70 91 2 50 27 76 28 4 33 1 94 49 63 67 62 40 32 11 85 0 23 10 86 57 13 24 51 19 83 66 47 14 79 26 35 9 18 72 54 5 37 88 92 43 84 20 39 80 99 44 3 71 69 74 87 21 93 31